c description: Random 3-CNF over 15 variables and 65 clauses
c generator: CNFgen (0.9.0)
c copyright: (C) 2012-2020 Massimo Lauria <massimo.lauria@uniroma1.it>
c url: https://massimolauria.net/cnfgen
c
p cnf 15 65
6 9 12 0
-6 9 13 0
-5 -12 -14 0
2 6 -10 0
3 -8 -9 0
1 3 -8 0
8 -12 -15 0
2 -10 -12 0
1 -3 10 0
8 -9 10 0
-3 -7 -12 0
-4 -7 -12 0
1 3 15 0
-9 -12 13 0
5 12 13 0
7 9 12 0
-2 8 -12 0
1 5 -12 0
6 -7 -14 0
1 8 -14 0
3 -8 9 0
-1 8 14 0
2 -5 13 0
-2 -11 15 0
-1 5 15 0
6 -14 15 0
2 6 8 0
-5 9 13 0
3 7 10 0
1 -4 15 0
-1 -5 7 0
-1 8 -12 0
5 -10 -11 0
-7 -9 11 0
4 7 15 0
7 13 15 0
-7 -8 10 0
-2 -7 10 0
10 11 12 0
-2 -8 -14 0
-7 -9 14 0
2 10 -15 0
3 -6 -11 0
8 13 -14 0
6 -10 -11 0
-10 -11 -12 0
-12 13 -15 0
4 9 11 0
-7 8 -11 0
4 9 12 0
-3 -4 12 0
5 12 -15 0
-5 6 8 0
-4 5 -13 0
-2 -8 15 0
-1 2 -11 0
1 4 -14 0
6 8 15 0
-2 -3 -4 0
-1 3 10 0
11 -13 -15 0
-10 -14 -15 0
1 -3 -4 0
3 -4 10 0
-5 10 11 0